networks/zoo_25_63/zoo_25_63-lower.sol
<?xml version = "1.0" encoding="UTF-8" standalone="yes"?>
<CPLEXSolution version="1.2">
 <header
   problemName="networks/zoo_25_63/zoo_25_63-lower.lp"
   solutionName="incumbent"
   solutionIndex="-1"
   objectiveValue="10"
   solutionTypeValue="3"
   solutionTypeString="primal"
   solutionStatusValue="101"
   solutionStatusString="integer optimal solution"
   solutionMethodString="mip"
   primalFeasible="1"
   dualFeasible="1"
   MIPNodes="0"
   MIPIterations="0"
   writeLevel="3"/>
 <quality
   epInt="1.0000000000000001e-05"
   epRHS="9.9999999999999995e-07"
   maxIntInfeas="0"
   maxPrimalInfeas="0"
   maxX="1"
   maxSlack="1"/>
 <variables>
  <variable name="Y(1,5)" index="3" value="1"/>
  <variable name="Y(3,7)" index="49" value="1"/>
  <variable name="Y(4,8)" index="72" value="1"/>
  <variable name="Y(5,11)" index="97" value="1"/>
  <variable name="Y(6,2)" index="111" value="1"/>
  <variable name="Y(8,6)" index="158" value="1"/>
  <variable name="Y(11,9)" index="227" value="1"/>
  <variable name="Y(12,10)" index="250" value="1"/>
  <variable name="Y(14,12)" index="296" value="1"/>
  <variable name="Y(16,3)" index="332" value="1"/>
  <variable name="X(1,11,1)" index="1386" value="1"/>
  <variable name="X(2,3,16)" index="1464" value="1"/>
  <variable name="X(2,5,2)" index="1513" value="1"/>
  <variable name="X(2,15,6)" index="1580" value="1"/>
  <variable name="X(3,2,6)" index="1643" value="1"/>
  <variable name="X(3,16,16)" index="1716" value="1"/>
  <variable name="X(5,2,15)" index="1778" value="1"/>
  <variable name="X(5,7,3)" index="1829" value="1"/>
  <variable name="X(5,8,4)" index="1893" value="1"/>
  <variable name="X(5,12,12)" index="1964" value="1"/>
  <variable name="X(5,18,1)" index="2016" value="1"/>
  <variable name="X(6,7,24)" index="2102" value="1"/>
  <variable name="X(6,8,28)" index="2169" value="1"/>
  <variable name="X(6,19,8)" index="2212" value="1"/>
  <variable name="X(7,5,24)" index="2291" value="1"/>
  <variable name="X(7,6,8)" index="2338" value="1"/>
  <variable name="X(7,8,33)" index="2426" value="1"/>
  <variable name="X(7,20,3)" index="2459" value="1"/>
  <variable name="X(8,5,1)" index="2520" value="1"/>
  <variable name="X(8,6,44)" index="2626" value="1"/>
  <variable name="X(8,7,38)" index="2683" value="1"/>
  <variable name="X(8,11,5)" index="2713" value="1"/>
  <variable name="X(8,21,4)" index="2775" value="1"/>
  <variable name="X(9,10,55)" index="2889" value="1"/>
  <variable name="X(9,11,44)" index="2941" value="1"/>
  <variable name="X(9,22,11)" index="2971" value="1"/>
  <variable name="X(10,9,44)" index="3067" value="1"/>
  <variable name="X(10,12,41)" index="3127" value="1"/>
  <variable name="X(10,23,12)" index="3161" value="1"/>
  <variable name="X(11,8,1)" index="3213" value="1"/>
  <variable name="X(11,9,11)" index="3286" value="1"/>
  <variable name="X(11,12,56)" index="3394" value="1"/>
  <variable name="X(11,24,5)" index="3406" value="1"/>
  <variable name="X(12,5,41)" index="3505" value="1"/>
  <variable name="X(12,10,12)" index="3539" value="1"/>
  <variable name="X(12,11,62)" index="3652" value="1"/>
  <variable name="X(12,25,14)" index="3667" value="1"/>
  <variable name="X(13,5,63)" index="3779" value="1"/>
 </variables>
</CPLEXSolution>
